(set-logic ALL)
(declare-fun seed0_T_1 () Bool)
(declare-fun seed0_T_2 () Bool)
(declare-fun seed0_T_3 () Bool)
(declare-fun seed0_T_4 () Bool)
(declare-fun seed0_var_0xINPUT_125036 () String)
(assert (and (or (= seed0_T_1 (= "-" seed0_var_0xINPUT_125036)) (and (str.<= (str.++ seed0_var_0xINPUT_125036 "oFQh3d") (str.++ seed0_var_0xINPUT_125036 "VzcP2geZ3uivasQI6")) (str.suffixof (str.++ seed0_var_0xINPUT_125036 "jn7xuNkTqd2fY14pe") (str.++ seed0_var_0xINPUT_125036 "F")))) (or (= seed0_T_2 (not seed0_T_1)) (=> (str.< (str.++ seed0_var_0xINPUT_125036 "89eu3pkP5mv") (str.++ seed0_var_0xINPUT_125036 "RfIQmVwDP2lnCso")) (str.contains (str.++ seed0_var_0xINPUT_125036 "hmY") (str.++ seed0_var_0xINPUT_125036 "fohCscW")))) (or seed0_T_2 (xor (str.<= (str.++ seed0_var_0xINPUT_125036 "UMsEjLrxT96tbvX") (str.++ seed0_var_0xINPUT_125036 "")) (str.contains (str.++ seed0_var_0xINPUT_125036 "lW8dFgavcGnUSC9rf") (str.++ seed0_var_0xINPUT_125036 "")))) (or (= seed0_T_3 (= "" seed0_var_0xINPUT_125036)) (and (str.prefixof (str.++ seed0_var_0xINPUT_125036 "5") (str.++ seed0_var_0xINPUT_125036 "NfcoHr0TmilAM78dwI2V")) (str.suffixof (str.++ seed0_var_0xINPUT_125036 "Ir927TnbGQVNEmAz") (str.++ seed0_var_0xINPUT_125036 "ma5HS")))) (or (= seed0_T_4 (not seed0_T_3)) (str.suffixof (str.++ seed0_var_0xINPUT_125036 "DJ8mh") (str.++ seed0_var_0xINPUT_125036 "9gtG20SXIQzfvqVTRZ"))) (or seed0_T_4 (and (str.<= (str.++ seed0_var_0xINPUT_125036 "FNUYDThCW257rcZvlAJV") (str.++ seed0_var_0xINPUT_125036 "q2bs")) (str.prefixof (str.++ seed0_var_0xINPUT_125036 "CwW0jQ5g7") (str.++ seed0_var_0xINPUT_125036 "F6O4hJtIn3ceksCowybR"))))))
(check-sat)
(exit)